NAME : A-n32-k5
COMMENT : (Augerat et al, No of trucks: 5, Optimal value: 784)
TYPE : CVRP
DIMENSION : 11
EDGE_WEIGHT_TYPE : EUC_2D 
CAPACITY : 100
NODE_COORD_SECTION 
 1 1 1
 2 2 2
 3 3 3
 4 4 4
 5 5 5
DEMAND_SECTION 
1 0 
2 30 
3 50 
4 20 
5 0 
DEPOT_SECTION 
 1  
 -1  
EOF 
